(set-info :source |printed by MathSAT|)
(declare-fun call_voiture.flby () Bool)
(declare-fun bump () Bool)
(declare-fun time () Int)
(declare-fun move () Bool)
(declare-fun second () Bool)
(declare-fun param_m () Bool)
(declare-fun param_s () Bool)
(declare-fun call_voiture.meter () Bool)
(declare-fun call_voiture.toofast () Bool)
(declare-fun call_voiture.time () Int)
(declare-fun call_voiture.second () Bool)
(declare-fun call_voiture.move () Bool)
(declare-fun call_voiture.ite2 () Int)
(declare-fun toofast () Bool)
(declare-fun call_voiture.ite3 () Int)
(declare-fun speed () Int)
(declare-fun call_voiture.flby3 () Bool)
(declare-fun call_voiture.bump () Bool)
(declare-fun call_voiture.dist () Int)
(declare-fun call_voiture.stop () Bool)
(declare-fun call_Sofar.Sofar () Bool)
(declare-fun call_voiture.flby4 () Int)
(declare-fun meter () Bool)
(declare-fun _OK_ () Bool)
(declare-fun stop () Bool)
(declare-fun call_voiture.flby2 () Bool)
(declare-fun call_voiture.flby6 () Int)
(declare-fun env () Bool)
(declare-fun call_excludes2.excludes () Bool)
(declare-fun call_Sofar.flby () Bool)
(declare-fun call_voiture.flby5 () Int)
(declare-fun call_voiture.speed () Int)
(declare-fun dist () Int)
(define-fun .def_380 () Bool (= call_Sofar.flby call_Sofar.Sofar))
(define-fun .def_376 () Bool (and param_s param_m))
(define-fun .def_377 () Bool (not .def_376))
(define-fun .def_378 () Bool (= call_excludes2.excludes .def_377))
(define-fun .def_372 () Bool (= call_voiture.flby call_voiture.meter))
(define-fun .def_370 () Bool (= call_voiture.flby2 call_voiture.second))
(define-fun .def_367 () Bool (= call_voiture.flby3 call_voiture.move))
(define-fun .def_364 () Bool (= call_voiture.ite3 0))
(define-fun .def_360 () Bool (not call_voiture.move))
(define-fun .def_361 () Bool (or call_voiture.second .def_360))
(define-fun .def_363 () Bool (not .def_361))
(define-fun .def_365 () Bool (or .def_363 .def_364))
(define-fun .def_359 () Bool (= call_voiture.ite2 call_voiture.ite3))
(define-fun .def_362 () Bool (or .def_359 .def_361))
(define-fun .def_366 () Bool (and .def_362 .def_365))
(define-fun .def_368 () Bool (and .def_366 .def_367))
(define-fun .def_355 () Bool (= call_voiture.flby6 call_voiture.time))
(define-fun .def_353 () Bool (= call_voiture.flby5 call_voiture.speed))
(define-fun .def_351 () Bool (= call_voiture.flby4 call_voiture.dist))
(define-fun .def_348 () Bool (= call_voiture.dist 10))
(define-fun .def_349 () Bool (= call_voiture.bump .def_348))
(define-fun .def_345 () Bool (<= 4 call_voiture.time))
(define-fun .def_346 () Bool (= call_voiture.stop .def_345))
(define-fun .def_342 () Bool (<= 3 call_voiture.speed))
(define-fun .def_343 () Bool (= call_voiture.toofast .def_342))
(define-fun .def_340 () Bool (= env call_Sofar.Sofar))
(define-fun .def_337 () Bool (= meter call_voiture.meter))
(define-fun .def_333 () Bool (= second call_voiture.second))
(define-fun .def_329 () Bool (= move call_voiture.move))
(define-fun .def_325 () Bool (= time call_voiture.time))
(define-fun .def_321 () Bool (= speed call_voiture.speed))
(define-fun .def_317 () Bool (= dist call_voiture.dist))
(define-fun .def_314 () Bool (= bump call_voiture.bump))
(define-fun .def_310 () Bool (= stop call_voiture.stop))
(define-fun .def_306 () Bool (= toofast call_voiture.toofast))
(define-fun .def_301 () Bool (<= 0 dist))
(define-fun .def_300 () Bool (not env))
(define-fun .def_302 () Bool (or .def_300 .def_301))
(define-fun .def_303 () Bool (= _OK_ .def_302))
(define-fun .def_307 () Bool (and .def_303 .def_306))
(define-fun .def_311 () Bool (and .def_307 .def_310))
(define-fun .def_315 () Bool (and .def_311 .def_314))
(define-fun .def_318 () Bool (and .def_315 .def_317))
(define-fun .def_322 () Bool (and .def_318 .def_321))
(define-fun .def_326 () Bool (and .def_322 .def_325))
(define-fun .def_330 () Bool (and .def_326 .def_329))
(define-fun .def_334 () Bool (and .def_330 .def_333))
(define-fun .def_338 () Bool (and .def_334 .def_337))
(define-fun .def_341 () Bool (and .def_338 .def_340))
(define-fun .def_344 () Bool (and .def_341 .def_343))
(define-fun .def_347 () Bool (and .def_344 .def_346))
(define-fun .def_350 () Bool (and .def_347 .def_349))
(define-fun .def_352 () Bool (and .def_350 .def_351))
(define-fun .def_354 () Bool (and .def_352 .def_353))
(define-fun .def_356 () Bool (and .def_354 .def_355))
(define-fun .def_369 () Bool (and .def_356 .def_368))
(define-fun .def_371 () Bool (and .def_369 .def_370))
(define-fun .def_373 () Bool (and .def_371 .def_372))
(define-fun .def_379 () Bool (and .def_373 .def_378))
(define-fun .def_381 () Bool (and .def_379 .def_380))
(define-fun .def_291 () Bool (<= 32767 dist))
(define-fun .def_292 () Bool (not .def_291))
(define-fun .def_294 () Bool (and .def_292 call_excludes2.excludes))
(define-fun .def_296 () Bool (= .def_294 call_Sofar.flby))
(define-fun .def_288 () Bool (= call_voiture.flby6 0))
(define-fun .def_285 () Bool (= call_voiture.flby5 0))
(define-fun .def_282 () Bool (= call_voiture.flby4 0))
(define-fun .def_277 () Bool (not call_voiture.flby2))
(define-fun .def_275 () Bool (not call_voiture.flby))
(define-fun .def_278 () Bool (and .def_275 .def_277))
(define-fun .def_280 () Bool (and .def_278 call_voiture.flby3))
(define-fun .def_283 () Bool (and .def_280 .def_282))
(define-fun .def_286 () Bool (and .def_283 .def_285))
(define-fun .def_289 () Bool (and .def_286 .def_288))
(define-fun .def_297 () Bool (and .def_289 .def_296))
(define-fun .def_382 () Bool (and .def_297 .def_381))
(assert .def_382)
